%%% static parameters %%%
timespan = 1;
Clients_N = [4000];
Demand_W = [15];
Lt0 = [4];
Lt1 = [4];
SS_ = [0.85];
DS_D = [20];
K = [200];
MA = [500];
HC = [0.05];
%%% dynamic parameters %%%
lost_ratio_sales_ret_th = 0.000269824988230983;
lost_ratio_sales_ret_w = 24;
lost_ratio_sales_dis_th = 0.0006093035460887462;
lost_ratio_sales_dis_w = 27;
lost_ratio_sales_fac_th = 0.0008722324405240055;
lost_ratio_sales_fac_w = 40;
stock_customer_MA_mean_relative_th = 0.8226204383347538;
stock_customer_MA_mean_relative_w = 98;
stock_distributor_MA_mean_relative_th = 0.4468681443356961;
stock_distributor_MA_mean_relative_w = 86;
stock_retailer_MA_mean_relative_th = 0.283503270632414;
stock_retailer_MA_mean_relative_w = 26;
stock_factory_MA_mean_relative_th = 0.21108951868471681;
stock_factory_MA_mean_relative_w = 3;
